array [1..2] of int: X_INTRODUCED_8_ = [1,-1];
var 1..8: X_INTRODUCED_0_;
var 1..8: X_INTRODUCED_1_;
var 1..8: X_INTRODUCED_2_;
var 1..8: X_INTRODUCED_3_;
var 1..8: X_INTRODUCED_4_;
var 1..8: X_INTRODUCED_5_;
var 1..8: X_INTRODUCED_6_;
var 1..8: X_INTRODUCED_7_;
array [1..8] of var int: q:: output_array([1..8]) = [X_INTRODUCED_0_,X_INTRODUCED_1_,X_INTRODUCED_2_,X_INTRODUCED_3_,X_INTRODUCED_4_,X_INTRODUCED_5_,X_INTRODUCED_6_,X_INTRODUCED_7_];
constraint int_lin_ne(X_INTRODUCED_8_,[X_INTRODUCED_0_,X_INTRODUCED_1_],0);
constraint int_lin_ne(X_INTRODUCED_8_,[X_INTRODUCED_0_,X_INTRODUCED_1_],1);
constraint int_lin_ne(X_INTRODUCED_8_,[X_INTRODUCED_0_,X_INTRODUCED_1_],-1);
constraint int_lin_ne(X_INTRODUCED_8_,[X_INTRODUCED_0_,X_INTRODUCED_2_],0);
constraint int_lin_ne(X_INTRODUCED_8_,[X_INTRODUCED_0_,X_INTRODUCED_2_],2);
constraint int_lin_ne(X_INTRODUCED_8_,[X_INTRODUCED_0_,X_INTRODUCED_2_],-2);
constraint int_lin_ne(X_INTRODUCED_8_,[X_INTRODUCED_0_,X_INTRODUCED_3_],0);
constraint int_lin_ne(X_INTRODUCED_8_,[X_INTRODUCED_0_,X_INTRODUCED_3_],3);
constraint int_lin_ne(X_INTRODUCED_8_,[X_INTRODUCED_0_,X_INTRODUCED_3_],-3);
constraint int_lin_ne(X_INTRODUCED_8_,[X_INTRODUCED_0_,X_INTRODUCED_4_],0);
constraint int_lin_ne(X_INTRODUCED_8_,[X_INTRODUCED_0_,X_INTRODUCED_4_],4);
constraint int_lin_ne(X_INTRODUCED_8_,[X_INTRODUCED_0_,X_INTRODUCED_4_],-4);
constraint int_lin_ne(X_INTRODUCED_8_,[X_INTRODUCED_0_,X_INTRODUCED_5_],0);
constraint int_lin_ne(X_INTRODUCED_8_,[X_INTRODUCED_0_,X_INTRODUCED_5_],5);
constraint int_lin_ne(X_INTRODUCED_8_,[X_INTRODUCED_0_,X_INTRODUCED_5_],-5);
constraint int_lin_ne(X_INTRODUCED_8_,[X_INTRODUCED_0_,X_INTRODUCED_6_],0);
constraint int_lin_ne(X_INTRODUCED_8_,[X_INTRODUCED_0_,X_INTRODUCED_6_],6);
constraint int_lin_ne(X_INTRODUCED_8_,[X_INTRODUCED_0_,X_INTRODUCED_6_],-6);
constraint int_lin_ne(X_INTRODUCED_8_,[X_INTRODUCED_0_,X_INTRODUCED_7_],0);
constraint int_lin_ne(X_INTRODUCED_8_,[X_INTRODUCED_0_,X_INTRODUCED_7_],7);
constraint int_lin_ne(X_INTRODUCED_8_,[X_INTRODUCED_0_,X_INTRODUCED_7_],-7);
constraint int_lin_ne(X_INTRODUCED_8_,[X_INTRODUCED_1_,X_INTRODUCED_2_],0);
constraint int_lin_ne(X_INTRODUCED_8_,[X_INTRODUCED_1_,X_INTRODUCED_2_],1);
constraint int_lin_ne(X_INTRODUCED_8_,[X_INTRODUCED_1_,X_INTRODUCED_2_],-1);
constraint int_lin_ne(X_INTRODUCED_8_,[X_INTRODUCED_1_,X_INTRODUCED_3_],0);
constraint int_lin_ne(X_INTRODUCED_8_,[X_INTRODUCED_1_,X_INTRODUCED_3_],2);
constraint int_lin_ne(X_INTRODUCED_8_,[X_INTRODUCED_1_,X_INTRODUCED_3_],-2);
constraint int_lin_ne(X_INTRODUCED_8_,[X_INTRODUCED_1_,X_INTRODUCED_4_],0);
constraint int_lin_ne(X_INTRODUCED_8_,[X_INTRODUCED_1_,X_INTRODUCED_4_],3);
constraint int_lin_ne(X_INTRODUCED_8_,[X_INTRODUCED_1_,X_INTRODUCED_4_],-3);
constraint int_lin_ne(X_INTRODUCED_8_,[X_INTRODUCED_1_,X_INTRODUCED_5_],0);
constraint int_lin_ne(X_INTRODUCED_8_,[X_INTRODUCED_1_,X_INTRODUCED_5_],4);
constraint int_lin_ne(X_INTRODUCED_8_,[X_INTRODUCED_1_,X_INTRODUCED_5_],-4);
constraint int_lin_ne(X_INTRODUCED_8_,[X_INTRODUCED_1_,X_INTRODUCED_6_],0);
constraint int_lin_ne(X_INTRODUCED_8_,[X_INTRODUCED_1_,X_INTRODUCED_6_],5);
constraint int_lin_ne(X_INTRODUCED_8_,[X_INTRODUCED_1_,X_INTRODUCED_6_],-5);
constraint int_lin_ne(X_INTRODUCED_8_,[X_INTRODUCED_1_,X_INTRODUCED_7_],0);
constraint int_lin_ne(X_INTRODUCED_8_,[X_INTRODUCED_1_,X_INTRODUCED_7_],6);
constraint int_lin_ne(X_INTRODUCED_8_,[X_INTRODUCED_1_,X_INTRODUCED_7_],-6);
constraint int_lin_ne(X_INTRODUCED_8_,[X_INTRODUCED_2_,X_INTRODUCED_3_],0);
constraint int_lin_ne(X_INTRODUCED_8_,[X_INTRODUCED_2_,X_INTRODUCED_3_],1);
constraint int_lin_ne(X_INTRODUCED_8_,[X_INTRODUCED_2_,X_INTRODUCED_3_],-1);
constraint int_lin_ne(X_INTRODUCED_8_,[X_INTRODUCED_2_,X_INTRODUCED_4_],0);
constraint int_lin_ne(X_INTRODUCED_8_,[X_INTRODUCED_2_,X_INTRODUCED_4_],2);
constraint int_lin_ne(X_INTRODUCED_8_,[X_INTRODUCED_2_,X_INTRODUCED_4_],-2);
constraint int_lin_ne(X_INTRODUCED_8_,[X_INTRODUCED_2_,X_INTRODUCED_5_],0);
constraint int_lin_ne(X_INTRODUCED_8_,[X_INTRODUCED_2_,X_INTRODUCED_5_],3);
constraint int_lin_ne(X_INTRODUCED_8_,[X_INTRODUCED_2_,X_INTRODUCED_5_],-3);
constraint int_lin_ne(X_INTRODUCED_8_,[X_INTRODUCED_2_,X_INTRODUCED_6_],0);
constraint int_lin_ne(X_INTRODUCED_8_,[X_INTRODUCED_2_,X_INTRODUCED_6_],4);
constraint int_lin_ne(X_INTRODUCED_8_,[X_INTRODUCED_2_,X_INTRODUCED_6_],-4);
constraint int_lin_ne(X_INTRODUCED_8_,[X_INTRODUCED_2_,X_INTRODUCED_7_],0);
constraint int_lin_ne(X_INTRODUCED_8_,[X_INTRODUCED_2_,X_INTRODUCED_7_],5);
constraint int_lin_ne(X_INTRODUCED_8_,[X_INTRODUCED_2_,X_INTRODUCED_7_],-5);
constraint int_lin_ne(X_INTRODUCED_8_,[X_INTRODUCED_3_,X_INTRODUCED_4_],0);
constraint int_lin_ne(X_INTRODUCED_8_,[X_INTRODUCED_3_,X_INTRODUCED_4_],1);
constraint int_lin_ne(X_INTRODUCED_8_,[X_INTRODUCED_3_,X_INTRODUCED_4_],-1);
constraint int_lin_ne(X_INTRODUCED_8_,[X_INTRODUCED_3_,X_INTRODUCED_5_],0);
constraint int_lin_ne(X_INTRODUCED_8_,[X_INTRODUCED_3_,X_INTRODUCED_5_],2);
constraint int_lin_ne(X_INTRODUCED_8_,[X_INTRODUCED_3_,X_INTRODUCED_5_],-2);
constraint int_lin_ne(X_INTRODUCED_8_,[X_INTRODUCED_3_,X_INTRODUCED_6_],0);
constraint int_lin_ne(X_INTRODUCED_8_,[X_INTRODUCED_3_,X_INTRODUCED_6_],3);
constraint int_lin_ne(X_INTRODUCED_8_,[X_INTRODUCED_3_,X_INTRODUCED_6_],-3);
constraint int_lin_ne(X_INTRODUCED_8_,[X_INTRODUCED_3_,X_INTRODUCED_7_],0);
constraint int_lin_ne(X_INTRODUCED_8_,[X_INTRODUCED_3_,X_INTRODUCED_7_],4);
constraint int_lin_ne(X_INTRODUCED_8_,[X_INTRODUCED_3_,X_INTRODUCED_7_],-4);
constraint int_lin_ne(X_INTRODUCED_8_,[X_INTRODUCED_4_,X_INTRODUCED_5_],0);
constraint int_lin_ne(X_INTRODUCED_8_,[X_INTRODUCED_4_,X_INTRODUCED_5_],1);
constraint int_lin_ne(X_INTRODUCED_8_,[X_INTRODUCED_4_,X_INTRODUCED_5_],-1);
constraint int_lin_ne(X_INTRODUCED_8_,[X_INTRODUCED_4_,X_INTRODUCED_6_],0);
constraint int_lin_ne(X_INTRODUCED_8_,[X_INTRODUCED_4_,X_INTRODUCED_6_],2);
constraint int_lin_ne(X_INTRODUCED_8_,[X_INTRODUCED_4_,X_INTRODUCED_6_],-2);
constraint int_lin_ne(X_INTRODUCED_8_,[X_INTRODUCED_4_,X_INTRODUCED_7_],0);
constraint int_lin_ne(X_INTRODUCED_8_,[X_INTRODUCED_4_,X_INTRODUCED_7_],3);
constraint int_lin_ne(X_INTRODUCED_8_,[X_INTRODUCED_4_,X_INTRODUCED_7_],-3);
constraint int_lin_ne(X_INTRODUCED_8_,[X_INTRODUCED_5_,X_INTRODUCED_6_],0);
constraint int_lin_ne(X_INTRODUCED_8_,[X_INTRODUCED_5_,X_INTRODUCED_6_],1);
constraint int_lin_ne(X_INTRODUCED_8_,[X_INTRODUCED_5_,X_INTRODUCED_6_],-1);
constraint int_lin_ne(X_INTRODUCED_8_,[X_INTRODUCED_5_,X_INTRODUCED_7_],0);
constraint int_lin_ne(X_INTRODUCED_8_,[X_INTRODUCED_5_,X_INTRODUCED_7_],2);
constraint int_lin_ne(X_INTRODUCED_8_,[X_INTRODUCED_5_,X_INTRODUCED_7_],-2);
constraint int_lin_ne(X_INTRODUCED_8_,[X_INTRODUCED_6_,X_INTRODUCED_7_],0);
constraint int_lin_ne(X_INTRODUCED_8_,[X_INTRODUCED_6_,X_INTRODUCED_7_],1);
constraint int_lin_ne(X_INTRODUCED_8_,[X_INTRODUCED_6_,X_INTRODUCED_7_],-1);
solve  satisfy;
